100
32
1
21
4
5
16
31
1
4
13
1
1
1
2
1
12
9
16
4
1
9
16
1
14
10
1
9
1
10
2
17
2
3
4
6
2
2
1
4
1
1
20
17
1
4
1
2
1
2
1
2
16
1
1
2
1
1
3
1
20
18
3
3
8
1
20
2
17
3
5
1
1
5
3
1
20
1
2
1
2
2
3
1
5
1
2
2
1
1
18
1
4
1
3
1
1
1
2
1
1
2